nNurses = 54;
nHours = 29;
minHours = 3;
maxHours = 18;
maxConsec = 18;
maxPresence = 12;
demand = [34, 33, 34, 33, 33, 32, 29, 29, 29, 27, 27, 22, 25, 20, 25, 22, 20, 24, 27, 32, 28, 31, 26, 27, 28, 26, 27, 31, 30];
